30
4 0 1
4 3 1
5 0 2
5 1 1
5 2 1
5 3 1
5 4 2
6 2 2
6 5 1
7 2 2
7 3 1
7 4 2
7 5 2
7 6 2
8 2 2
9 2 2
9 6 2
9 7 1
9 8 1
10 1 1
10 3 1
10 4 2
10 5 2
10 9 1
11 0 1
11 1 1
11 2 2
11 5 2
11 6 2
11 7 1
11 9 1
12 1 2
12 3 1
12 7 2
12 10 2
12 11 2
13 0 1
13 2 2
13 6 2
13 8 1
13 9 2
13 10 1
13 11 1
14 1 1
14 6 2
14 7 2
14 8 1
14 9 2
14 10 1
14 12 2
14 13 1
15 0 1
15 1 1
15 2 2
15 4 1
15 14 2
16 0 2
16 2 1
16 3 2
16 4 1
16 7 1
16 10 2
16 11 1
16 12 1
16 13 1
17 3 1
17 4 2
17 7 1
17 8 2
17 9 2
17 13 2
18 0 1
18 1 1
18 4 2
18 6 1
18 10 2
18 13 1
18 17 1
19 0 2
19 1 1
19 2 2
19 5 1
19 7 2
19 9 2
19 10 2
19 11 1
19 14 2
19 15 1
19 16 1
19 18 2
20 0 1
20 1 2
20 2 2
20 3 2
20 5 1
20 6 1
20 7 2
20 9 1
20 12 1
20 16 2
20 18 1
21 7 2
21 9 2
21 10 1
21 11 1
21 14 1
21 18 2
21 19 1
22 0 1
22 1 2
22 7 2
22 8 2
22 9 2
22 12 2
22 13 2
22 15 1
22 16 2
22 18 1
22 19 2
22 20 2
23 0 2
23 1 2
23 3 1
23 4 1
23 11 2
23 19 1
23 21 1
23 22 1
24 0 1
24 1 1
24 3 1
24 4 2
24 5 1
24 7 1
24 9 1
24 10 2
24 11 2
24 16 1
24 17 1
24 20 1
25 4 2
25 7 2
25 11 1
25 13 1
25 14 1
25 15 1
25 19 2
25 20 2
25 22 2
25 23 1
25 24 1
26 0 2
26 2 1
26 11 1
26 12 2
26 13 2
26 14 1
26 20 2
26 24 1
27 0 1
27 1 2
27 3 1
27 7 1
27 8 1
27 9 2
27 11 1
27 13 2
27 14 2
27 15 1
27 16 1
27 19 1
27 20 1
27 22 1
28 0 2
28 1 2
28 2 1
28 4 1
28 5 2
28 6 1
28 9 1
28 10 1
28 11 2
28 12 2
28 15 2
28 19 1
28 22 2
28 23 2
28 24 2
28 26 1
29 0 1
29 2 2
29 3 1
29 4 2
29 5 1
29 7 1
29 8 2
29 9 2
29 12 1
29 15 2
29 18 2
29 20 1
29 23 1
29 24 1
29 25 1
29 26 1
